g3 1 1 0	# problem qrtquad
 120 0 1 0 0	# vars, constraints, objectives, ranges, eqns
 0 1	# nonlinear constraints, objectives
 0 0	# network constraints: nonlinear, linear
 0 120 0	# nonlinear vars in constraints, objectives, both
 0 0 0 1	# linear network variables; functions; arith, flags
 0 0 0 0 0	# discrete variables: binary, integer, nonlinear (b,c,o)
 0 120	# nonzeros in Jacobian, gradients
 0 0	# max name lengths: constraints, variables
 0 0 0 0 0	# common exprs: b,c,o,c1,o1
b
0 0 10
0 0 10
0 0 10
0 0 10
0 0 10
0 0 10
0 0 10
0 0 10
0 0 10
0 0 10
3
3
3
3
3
3
3
3
3
3
3
3
3
3
3
3
3
3
3
3
3
3
3
3
3
3
3
3
3
3
3
3
3
3
3
3
3
3
3
3
3
3
3
3
3
3
3
3
3
3
3
3
3
3
3
3
3
3
3
3
3
3
3
3
3
3
3
3
3
3
3
3
3
3
3
3
3
3
3
3
3
3
3
3
3
3
3
3
3
3
3
3
3
3
3
3
3
3
3
3
3
3
3
3
3
3
3
3
3
3
x120
0 0
1 0
2 0
3 0
4 0
5 0
6 0
7 0
8 0
9 0
10 0
11 0
12 0
13 0
14 0
15 0
16 0
17 0
18 0
19 0
20 0
21 0
22 0
23 0
24 0
25 0
26 0
27 0
28 0
29 0
30 0
31 0
32 0
33 0
34 0
35 0
36 0
37 0
38 0
39 0
40 0
41 0
42 0
43 0
44 0
45 0
46 0
47 0
48 0
49 0
50 0
51 0
52 0
53 0
54 0
55 0
56 0
57 0
58 0
59 0
60 0
61 0
62 0
63 0
64 0
65 0
66 0
67 0
68 0
69 0
70 0
71 0
72 0
73 0
74 0
75 0
76 0
77 0
78 0
79 0
80 0
81 0
82 0
83 0
84 0
85 0
86 0
87 0
88 0
89 0
90 0
91 0
92 0
93 0
94 0
95 0
96 0
97 0
98 0
99 0
100 0
101 0
102 0
103 0
104 0
105 0
106 0
107 0
108 0
109 0
110 0
111 0
112 0
113 0
114 0
115 0
116 0
117 0
118 0
119 0
O0 0
o54
337
o2
n0.1
o5
o2
v0
v1
n4
o2
n0.2
o5
o2
v1
v2
n4
o2
n0.3
o5
o2
v2
v3
n4
o2
n0.4
o5
o2
v3
v4
n4
o2
n0.5
o5
o2
v4
v5
n4
o2
n0.6
o5
o2
v5
v6
n4
o2
n0.7
o5
o2
v6
v7
n4
o2
n0.8
o5
o2
v7
v8
n4
o2
n0.9
o5
o2
v8
v9
n4
o5
o2
v9
v10
n4
o2
n4
o5
v10
n2
o2
n2
o5
v119
n2
o2
v10
v119
o2
n4
o5
v11
n2
o2
n2
o5
v119
n2
o2
v11
v119
o2
n4
o5
v12
n2
o2
n2
o5
v119
n2
o2
v12
v119
o2
n4
o5
v13
n2
o2
n2
o5
v119
n2
o2
v13
v119
o2
n4
o5
v14
n2
o2
n2
o5
v119
n2
o2
v14
v119
o2
n4
o5
v15
n2
o2
n2
o5
v119
n2
o2
v15
v119
o2
n4
o5
v16
n2
o2
n2
o5
v119
n2
o2
v16
v119
o2
n4
o5
v17
n2
o2
n2
o5
v119
n2
o2
v17
v119
o2
n4
o5
v18
n2
o2
n2
o5
v119
n2
o2
v18
v119
o2
n4
o5
v19
n2
o2
n2
o5
v119
n2
o2
v19
v119
o2
n4
o5
v20
n2
o2
n2
o5
v119
n2
o2
v20
v119
o2
n4
o5
v21
n2
o2
n2
o5
v119
n2
o2
v21
v119
o2
n4
o5
v22
n2
o2
n2
o5
v119
n2
o2
v22
v119
o2
n4
o5
v23
n2
o2
n2
o5
v119
n2
o2
v23
v119
o2
n4
o5
v24
n2
o2
n2
o5
v119
n2
o2
v24
v119
o2
n4
o5
v25
n2
o2
n2
o5
v119
n2
o2
v25
v119
o2
n4
o5
v26
n2
o2
n2
o5
v119
n2
o2
v26
v119
o2
n4
o5
v27
n2
o2
n2
o5
v119
n2
o2
v27
v119
o2
n4
o5
v28
n2
o2
n2
o5
v119
n2
o2
v28
v119
o2
n4
o5
v29
n2
o2
n2
o5
v119
n2
o2
v29
v119
o2
n4
o5
v30
n2
o2
n2
o5
v119
n2
o2
v30
v119
o2
n4
o5
v31
n2
o2
n2
o5
v119
n2
o2
v31
v119
o2
n4
o5
v32
n2
o2
n2
o5
v119
n2
o2
v32
v119
o2
n4
o5
v33
n2
o2
n2
o5
v119
n2
o2
v33
v119
o2
n4
o5
v34
n2
o2
n2
o5
v119
n2
o2
v34
v119
o2
n4
o5
v35
n2
o2
n2
o5
v119
n2
o2
v35
v119
o2
n4
o5
v36
n2
o2
n2
o5
v119
n2
o2
v36
v119
o2
n4
o5
v37
n2
o2
n2
o5
v119
n2
o2
v37
v119
o2
n4
o5
v38
n2
o2
n2
o5
v119
n2
o2
v38
v119
o2
n4
o5
v39
n2
o2
n2
o5
v119
n2
o2
v39
v119
o2
n4
o5
v40
n2
o2
n2
o5
v119
n2
o2
v40
v119
o2
n4
o5
v41
n2
o2
n2
o5
v119
n2
o2
v41
v119
o2
n4
o5
v42
n2
o2
n2
o5
v119
n2
o2
v42
v119
o2
n4
o5
v43
n2
o2
n2
o5
v119
n2
o2
v43
v119
o2
n4
o5
v44
n2
o2
n2
o5
v119
n2
o2
v44
v119
o2
n4
o5
v45
n2
o2
n2
o5
v119
n2
o2
v45
v119
o2
n4
o5
v46
n2
o2
n2
o5
v119
n2
o2
v46
v119
o2
n4
o5
v47
n2
o2
n2
o5
v119
n2
o2
v47
v119
o2
n4
o5
v48
n2
o2
n2
o5
v119
n2
o2
v48
v119
o2
n4
o5
v49
n2
o2
n2
o5
v119
n2
o2
v49
v119
o2
n4
o5
v50
n2
o2
n2
o5
v119
n2
o2
v50
v119
o2
n4
o5
v51
n2
o2
n2
o5
v119
n2
o2
v51
v119
o2
n4
o5
v52
n2
o2
n2
o5
v119
n2
o2
v52
v119
o2
n4
o5
v53
n2
o2
n2
o5
v119
n2
o2
v53
v119
o2
n4
o5
v54
n2
o2
n2
o5
v119
n2
o2
v54
v119
o2
n4
o5
v55
n2
o2
n2
o5
v119
n2
o2
v55
v119
o2
n4
o5
v56
n2
o2
n2
o5
v119
n2
o2
v56
v119
o2
n4
o5
v57
n2
o2
n2
o5
v119
n2
o2
v57
v119
o2
n4
o5
v58
n2
o2
n2
o5
v119
n2
o2
v58
v119
o2
n4
o5
v59
n2
o2
n2
o5
v119
n2
o2
v59
v119
o2
n4
o5
v60
n2
o2
n2
o5
v119
n2
o2
v60
v119
o2
n4
o5
v61
n2
o2
n2
o5
v119
n2
o2
v61
v119
o2
n4
o5
v62
n2
o2
n2
o5
v119
n2
o2
v62
v119
o2
n4
o5
v63
n2
o2
n2
o5
v119
n2
o2
v63
v119
o2
n4
o5
v64
n2
o2
n2
o5
v119
n2
o2
v64
v119
o2
n4
o5
v65
n2
o2
n2
o5
v119
n2
o2
v65
v119
o2
n4
o5
v66
n2
o2
n2
o5
v119
n2
o2
v66
v119
o2
n4
o5
v67
n2
o2
n2
o5
v119
n2
o2
v67
v119
o2
n4
o5
v68
n2
o2
n2
o5
v119
n2
o2
v68
v119
o2
n4
o5
v69
n2
o2
n2
o5
v119
n2
o2
v69
v119
o2
n4
o5
v70
n2
o2
n2
o5
v119
n2
o2
v70
v119
o2
n4
o5
v71
n2
o2
n2
o5
v119
n2
o2
v71
v119
o2
n4
o5
v72
n2
o2
n2
o5
v119
n2
o2
v72
v119
o2
n4
o5
v73
n2
o2
n2
o5
v119
n2
o2
v73
v119
o2
n4
o5
v74
n2
o2
n2
o5
v119
n2
o2
v74
v119
o2
n4
o5
v75
n2
o2
n2
o5
v119
n2
o2
v75
v119
o2
n4
o5
v76
n2
o2
n2
o5
v119
n2
o2
v76
v119
o2
n4
o5
v77
n2
o2
n2
o5
v119
n2
o2
v77
v119
o2
n4
o5
v78
n2
o2
n2
o5
v119
n2
o2
v78
v119
o2
n4
o5
v79
n2
o2
n2
o5
v119
n2
o2
v79
v119
o2
n4
o5
v80
n2
o2
n2
o5
v119
n2
o2
v80
v119
o2
n4
o5
v81
n2
o2
n2
o5
v119
n2
o2
v81
v119
o2
n4
o5
v82
n2
o2
n2
o5
v119
n2
o2
v82
v119
o2
n4
o5
v83
n2
o2
n2
o5
v119
n2
o2
v83
v119
o2
n4
o5
v84
n2
o2
n2
o5
v119
n2
o2
v84
v119
o2
n4
o5
v85
n2
o2
n2
o5
v119
n2
o2
v85
v119
o2
n4
o5
v86
n2
o2
n2
o5
v119
n2
o2
v86
v119
o2
n4
o5
v87
n2
o2
n2
o5
v119
n2
o2
v87
v119
o2
n4
o5
v88
n2
o2
n2
o5
v119
n2
o2
v88
v119
o2
n4
o5
v89
n2
o2
n2
o5
v119
n2
o2
v89
v119
o2
n4
o5
v90
n2
o2
n2
o5
v119
n2
o2
v90
v119
o2
n4
o5
v91
n2
o2
n2
o5
v119
n2
o2
v91
v119
o2
n4
o5
v92
n2
o2
n2
o5
v119
n2
o2
v92
v119
o2
n4
o5
v93
n2
o2
n2
o5
v119
n2
o2
v93
v119
o2
n4
o5
v94
n2
o2
n2
o5
v119
n2
o2
v94
v119
o2
n4
o5
v95
n2
o2
n2
o5
v119
n2
o2
v95
v119
o2
n4
o5
v96
n2
o2
n2
o5
v119
n2
o2
v96
v119
o2
n4
o5
v97
n2
o2
n2
o5
v119
n2
o2
v97
v119
o2
n4
o5
v98
n2
o2
n2
o5
v119
n2
o2
v98
v119
o2
n4
o5
v99
n2
o2
n2
o5
v119
n2
o2
v99
v119
o2
n4
o5
v100
n2
o2
n2
o5
v119
n2
o2
v100
v119
o2
n4
o5
v101
n2
o2
n2
o5
v119
n2
o2
v101
v119
o2
n4
o5
v102
n2
o2
n2
o5
v119
n2
o2
v102
v119
o2
n4
o5
v103
n2
o2
n2
o5
v119
n2
o2
v103
v119
o2
n4
o5
v104
n2
o2
n2
o5
v119
n2
o2
v104
v119
o2
n4
o5
v105
n2
o2
n2
o5
v119
n2
o2
v105
v119
o2
n4
o5
v106
n2
o2
n2
o5
v119
n2
o2
v106
v119
o2
n4
o5
v107
n2
o2
n2
o5
v119
n2
o2
v107
v119
o2
n4
o5
v108
n2
o2
n2
o5
v119
n2
o2
v108
v119
o2
n4
o5
v109
n2
o2
n2
o5
v119
n2
o2
v109
v119
o2
n4
o5
v110
n2
o2
n2
o5
v119
n2
o2
v110
v119
o2
n4
o5
v111
n2
o2
n2
o5
v119
n2
o2
v111
v119
o2
n4
o5
v112
n2
o2
n2
o5
v119
n2
o2
v112
v119
o2
n4
o5
v113
n2
o2
n2
o5
v119
n2
o2
v113
v119
o2
n4
o5
v114
n2
o2
n2
o5
v119
n2
o2
v114
v119
o2
n4
o5
v115
n2
o2
n2
o5
v119
n2
o2
v115
v119
o2
n4
o5
v116
n2
o2
n2
o5
v119
n2
o2
v116
v119
o2
n4
o5
v117
n2
o2
n2
o5
v119
n2
o2
v117
v119
o2
n4
o5
v118
n2
o2
n2
o5
v119
n2
o2
v118
v119
k119
0
0
0
0
0
0
0
0
0
0
0
0
0
0
0
0
0
0
0
0
0
0
0
0
0
0
0
0
0
0
0
0
0
0
0
0
0
0
0
0
0
0
0
0
0
0
0
0
0
0
0
0
0
0
0
0
0
0
0
0
0
0
0
0
0
0
0
0
0
0
0
0
0
0
0
0
0
0
0
0
0
0
0
0
0
0
0
0
0
0
0
0
0
0
0
0
0
0
0
0
0
0
0
0
0
0
0
0
0
0
0
0
0
0
0
0
0
0
0
G0 120
0 -10
1 -20
2 -30
3 -40
4 -50
5 -60
6 -70
7 -80
8 -90
9 -100
10 -110
11 -120
12 -130
13 -140
14 -150
15 -160
16 -170
17 -180
18 -190
19 -200
20 -210
21 -220
22 -230
23 -240
24 -250
25 -260
26 -270
27 -280
28 -290
29 -300
30 -310
31 -320
32 -330
33 -340
34 -350
35 -360
36 -370
37 -380
38 -390
39 -400
40 -410
41 -420
42 -430
43 -440
44 -450
45 -460
46 -470
47 -480
48 -490
49 -500
50 -510
51 -520
52 -530
53 -540
54 -550
55 -560
56 -570
57 -580
58 -590
59 -600
60 -610
61 -620
62 -630
63 -640
64 -650
65 -660
66 -670
67 -680
68 -690
69 -700
70 -710
71 -720
72 -730
73 -740
74 -750
75 -760
76 -770
77 -780
78 -790
79 -800
80 -810
81 -820
82 -830
83 -840
84 -850
85 -860
86 -870
87 -880
88 -890
89 -900
90 -910
91 -920
92 -930
93 -940
94 -950
95 -960
96 -970
97 -980
98 -990
99 -1000
100 -1010
101 -1020
102 -1030
103 -1040
104 -1050
105 -1060
106 -1070
107 -1080
108 -1090
109 -1100
110 -1110
111 -1120
112 -1130
113 -1140
114 -1150
115 -1160
116 -1170
117 -1180
118 -1190
119 0
